data/CVRPLIB/Vrp-Set-XML100/instances/XML100_3315_08.vrp
NAME : XML100_3315_08
COMMENT : Generated by Queiroga, Sadykov, Uchoa, and Vidal (2021)
TYPE : CVRP
DIMENSION : 101
EDGE_WEIGHT_TYPE : EUC_2D
CAPACITY : 19
NODE_COORD_SECTION
1    0    0   
2    233  789 
3    899  225 
4    922  764 
5    811  338 
6    314  549 
7    882  176 
8    6    695 
9    115  55  
10   447  341 
11   261  620 
12   257  593 
13   760  184 
14   193  615 
15   12   925 
16   721  113 
17   987  192 
18   927  722 
19   613  560 
20   862  502 
21   214  996 
22   386  438 
23   284  684 
24   798  813 
25   760  680 
26   765  245 
27   658  154 
28   991  205 
29   682  669 
30   561  946 
31   206  433 
32   347  583 
33   995  225 
34   616  746 
35   662  709 
36   712  596 
37   929  613 
38   460  721 
39   906  724 
40   934  699 
41   649  204 
42   730  123 
43   842  313 
44   950  456 
45   396  592 
46   159  522 
47   970  709 
48   304  670 
49   190  29  
50   501  447 
51   600  767 
52   110  631 
53   45   285 
54   303  621 
55   523  779 
56   921  978 
57   929  648 
58   245  752 
59   604  237 
60   687  195 
61   496  407 
62   507  397 
63   570  871 
64   109  169 
65   935  214 
66   137  621 
67   597  346 
68   237  910 
69   22   240 
70   941  625 
71   181  881 
72   705  29  
73   664  808 
74   261  647 
75   764  105 
76   169  764 
77   312  633 
78   482  32  
79   614  560 
80   245  888 
81   890  193 
82   94   342 
83   820  234 
84   942  705 
85   234  161 
86   121  662 
87   182  981 
88   267  522 
89   221  638 
90   871  620 
91   485  628 
92   410  828 
93   844  143 
94   382  688 
95   254  709 
96   916  782 
97   254  899 
98   861  233 
99   70   800 
100  522  850 
101  715  714 
DEMAND_SECTION
1    0   
2    1   
3    1   
4    1   
5    1   
6    1   
7    1   
8    1   
9    1   
10   1   
11   1   
12   1   
13   1   
14   1   
15   1   
16   1   
17   1   
18   1   
19   1   
20   1   
21   1   
22   1   
23   1   
24   1   
25   1   
26   1   
27   1   
28   1   
29   1   
30   1   
31   1   
32   1   
33   1   
34   1   
35   1   
36   1   
37   1   
38   1   
39   1   
40   1   
41   1   
42   1   
43   1   
44   1   
45   1   
46   1   
47   1   
48   1   
49   1   
50   1   
51   1   
52   1   
53   1   
54   1   
55   1   
56   1   
57   1   
58   1   
59   1   
60   1   
61   1   
62   1   
63   1   
64   1   
65   1   
66   1   
67   1   
68   1   
69   1   
70   1   
71   1   
72   1   
73   1   
74   1   
75   1   
76   1   
77   1   
78   1   
79   1   
80   1   
81   1   
82   1   
83   1   
84   1   
85   1   
86   1   
87   1   
88   1   
89   1   
90   1   
91   1   
92   1   
93   1   
94   1   
95   1   
96   1   
97   1   
98   1   
99   1   
100  1   
101  1   
DEPOT_SECTION
1
-1
EOF
