data/CVRPLIB/Vrp-Set-XML100/solutions/XML100_3315_08.sol
Route #1: 48 26 59 12 82 97 2 64 32 27 16 80 6 92 74 41 15 71 77
Route #2: 7 98 14 86 20 70 67 79 96 91 29 62 99 54 37 93 44 31 5
Route #3: 8 63 81 52 68
Route #4: 66 19 36 69 56 39 83 46 17 38 3 95 55 23 72 50 33 90 21
Route #5: 84 9 61 60 49 18 78 35 28 34 100 24 89 43 42 4 25 40 58
Route #6: 45 65 51 85 75 1 57 94 22 47 76 53 10 73 88 13 11 87 30
Cost 13540
